c Sudoku solution
p cnf 729 0
122 0
138 0
144 0
161 0
224 0
266 0
279 0
288 0
335 0
358 0
369 0
119 0
431 0
462 0
473 0
528 0
576 0
653 0
689 0
791 0
211 0
863 0
887 0
926 0
821 0
316 0
636 0
947 0
951 0
968 0
974 0
999 0
484 0
394 0
625 0
417 0
429 0
456 0
727 0
323 0
237 0
157 0
175 0
377 0
381 0
292 0
255 0
342 0
243 0
671 0
541 0
648 0
445 0
559 0
498 0
765 0
697 0
582 0
595 0
612 0
567 0
664 0
932 0
985 0
783 0
896 0
913 0
815 0
718 0
746 0
849 0
772 0
878 0
754 0
852 0
739 0
834 0
514 0
533 0
186 0
193 0
